4083827569921676477506,11,1,2,02,14,1,2,015,9,1,2,06,2,1,2,03,14,1,2,015,6,1,2,02,10,1,2,03,9,1,2,014,10,1,2,04,1,1,2,01,7,1,2,06,7,1,2,08,12,1,2,011,5,1,2,012,12,1,2,015,7,1,2,02,8,1,2,014,6,1,2,012,10,1,2,04,9,1,2,08,9,1,2,09,15,1,2,06,11,1,2,01,11,1,2,08,15,1,2,010,12,1,2,01,4,1,2,07,8,1,2,012,13,1,2,012,2,1,2,015,12,1,2,02,14,1,2,010,3,1,2,010,9,1,2,014,1,1,2,010,11,1,2,01,11,1,2,013,9,1,2,03,15,1,2,09,11,1,2,02,8,1,2,09,14,1,2,01,8,1,2,011,2,1,2,09,7,1,2,015,3,1,2,01,15,1,2,014,11,1,2,014,11,1,2,08,10,1,2,0